NAME          
ROWS
 N  OBJ
 L  c1
COLUMNS
    MARKER    'MARKER'                 'INTORG'
    x[1]      c1        157
    x[1]      OBJ       -99
    x[2]      c1        533
    x[2]      OBJ       -259
    x[3]      c1        581
    x[3]      OBJ       -155
    x[4]      c1        295
    x[4]      OBJ       -521
    x[5]      c1        344
    x[5]      OBJ       -17
    x[6]      c1        71
    x[6]      OBJ       -281
    x[7]      c1        857
    x[7]      OBJ       -712
    x[8]      c1        998
    x[8]      OBJ       -269
    x[9]      c1        109
    x[9]      OBJ       -435
    x[10]     c1        62
    x[10]     OBJ       -423
    x[11]     c1        540
    x[11]     OBJ       -830
    x[12]     c1        415
    x[12]     OBJ       -995
    x[13]     c1        625
    x[13]     OBJ       -565
    x[14]     c1        867
    x[14]     OBJ       -928
    x[15]     c1        219
    x[15]     OBJ       -194
    x[16]     c1        129
    x[16]     OBJ       -182
    x[17]     c1        620
    x[17]     OBJ       -324
    x[18]     c1        486
    x[18]     OBJ       -757
    x[19]     c1        824
    x[19]     OBJ       -39
    x[20]     c1        773
    x[20]     OBJ       -839
    x[21]     c1        689
    x[21]     OBJ       -264
    x[22]     c1        854
    x[22]     OBJ       -474
    x[23]     c1        682
    x[23]     OBJ       -995
    x[24]     c1        156
    x[24]     OBJ       -930
    x[25]     c1        845
    x[25]     OBJ       -848
    x[26]     c1        173
    x[26]     OBJ       -405
    x[27]     c1        761
    x[27]     OBJ       -893
    x[28]     c1        672
    x[28]     OBJ       -377
    x[29]     c1        241
    x[29]     OBJ       -596
    x[30]     c1        251
    x[30]     OBJ       -299
    x[31]     c1        419
    x[31]     OBJ       -769
    x[32]     c1        804
    x[32]     OBJ       -415
    x[33]     c1        582
    x[33]     OBJ       -294
    x[34]     c1        586
    x[34]     OBJ       -414
    x[35]     c1        616
    x[35]     OBJ       -458
    x[36]     c1        87
    x[36]     OBJ       -309
    x[37]     c1        19
    x[37]     OBJ       -600
    x[38]     c1        380
    x[38]     OBJ       -506
    x[39]     c1        638
    x[39]     OBJ       -666
    x[40]     c1        504
    x[40]     OBJ       -824
RHS
    rhs       c1        9732
RANGES
BOUNDS
 BV bounds    x[1]
 BV bounds    x[2]
 BV bounds    x[3]
 BV bounds    x[4]
 BV bounds    x[5]
 BV bounds    x[6]
 BV bounds    x[7]
 BV bounds    x[8]
 BV bounds    x[9]
 BV bounds    x[10]
 BV bounds    x[11]
 BV bounds    x[12]
 BV bounds    x[13]
 BV bounds    x[14]
 BV bounds    x[15]
 BV bounds    x[16]
 BV bounds    x[17]
 BV bounds    x[18]
 BV bounds    x[19]
 BV bounds    x[20]
 BV bounds    x[21]
 BV bounds    x[22]
 BV bounds    x[23]
 BV bounds    x[24]
 BV bounds    x[25]
 BV bounds    x[26]
 BV bounds    x[27]
 BV bounds    x[28]
 BV bounds    x[29]
 BV bounds    x[30]
 BV bounds    x[31]
 BV bounds    x[32]
 BV bounds    x[33]
 BV bounds    x[34]
 BV bounds    x[35]
 BV bounds    x[36]
 BV bounds    x[37]
 BV bounds    x[38]
 BV bounds    x[39]
 BV bounds    x[40]
ENDATA
